
c turning on binary mode checking

c parsing input formula with 7010 variables and 28126 clauses

c finished parsing, read 1877 bytes from proof file

c detected empty clause; start verification via backward checking

c 285 of 28126 clauses in core                            

c 43 of 300 lemmas in core using 327 resolution steps

c 0 RAT lemmas in core; 0 redundant literals in core lemmas

s VERIFIED

c verification time: 0.059 seconds
